&CONTROL
   calculation      = 'relax'
   outdir           = './tmp'
   prefix           = 'gzn_hybrid'
   pseudo_dir       = './pseudo'
/
&SYSTEM
   ibrav            = 0
   ecutwfc          = 40.0
   ecutrho          = 320.0
   occupations      = 'smearing'
   degauss          = 0.02
   smearing         = 'mp'
   ntyp             = 3
   nat              = 432
/
&ELECTRONS
   electron_maxstep = 80
   conv_thr         = 1e-05
   mixing_beta      = 0.3
/
&IONS
   ion_dynamics     = 'bfgs'
/
&CELL
/

ATOMIC_SPECIES
C 12.011 C.pbe-n-kjpaw_psl.1.0.0.UPF
Zn 65.38 Zn.pbe-dnl-kjpaw_psl.1.0.0.UPF
O 15.999 O.pbe-n-kjpaw_psl.1.0.0.UPF

K_POINTS automatic
1 1 1  0 0 0

CELL_PARAMETERS angstrom
25.56000000000000 0.00000000000000 0.00000000000000
0.00000000000000 14.75707288048683 0.00000000000000
0.00000000000000 0.00000000000000 61.42291666666667

ATOMIC_POSITIONS angstrom
C 0.0000000000 0.0000000000 10.0000000000 
C 1.4200000000 0.0000000000 10.0000000000 
C 2.1300000000 1.2297560734 10.0000000000 
C 3.5500000000 1.2297560734 10.0000000000 
C 0.0000000000 2.4595121467 10.0000000000 
C 1.4200000000 2.4595121467 10.0000000000 
C 2.1300000000 3.6892682201 10.0000000000 
C 3.5500000000 3.6892682201 10.0000000000 
C 0.0000000000 4.9190242935 10.0000000000 
C 1.4200000000 4.9190242935 10.0000000000 
C 2.1300000000 6.1487803669 10.0000000000 
C 3.5500000000 6.1487803669 10.0000000000 
C 0.0000000000 7.3785364402 10.0000000000 
C 1.4200000000 7.3785364402 10.0000000000 
C 2.1300000000 8.6082925136 10.0000000000 
C 3.5500000000 8.6082925136 10.0000000000 
C 0.0000000000 9.8380485870 10.0000000000 
C 1.4200000000 9.8380485870 10.0000000000 
C 2.1300000000 11.0678046604 10.0000000000 
C 3.5500000000 11.0678046604 10.0000000000 
C 0.0000000000 12.2975607337 10.0000000000 
C 1.4200000000 12.2975607337 10.0000000000 
C 2.1300000000 13.5273168071 10.0000000000 
C 3.5500000000 13.5273168071 10.0000000000 
C 4.2600000000 0.0000000000 10.0000000000 
C 5.6800000000 0.0000000000 10.0000000000 
C 6.3900000000 1.2297560734 10.0000000000 
C 7.8100000000 1.2297560734 10.0000000000 
C 4.2600000000 2.4595121467 10.0000000000 
C 5.6800000000 2.4595121467 10.0000000000 
C 6.3900000000 3.6892682201 10.0000000000 
C 7.8100000000 3.6892682201 10.0000000000 
C 4.2600000000 4.9190242935 10.0000000000 
C 5.6800000000 4.9190242935 10.0000000000 
C 6.3900000000 6.1487803669 10.0000000000 
C 7.8100000000 6.1487803669 10.0000000000 
C 4.2600000000 7.3785364402 10.0000000000 
C 5.6800000000 7.3785364402 10.0000000000 
C 6.3900000000 8.6082925136 10.0000000000 
C 7.8100000000 8.6082925136 10.0000000000 
C 4.2600000000 9.8380485870 10.0000000000 
C 5.6800000000 9.8380485870 10.0000000000 
C 6.3900000000 11.0678046604 10.0000000000 
C 7.8100000000 11.0678046604 10.0000000000 
C 4.2600000000 12.2975607337 10.0000000000 
C 5.6800000000 12.2975607337 10.0000000000 
C 6.3900000000 13.5273168071 10.0000000000 
C 7.8100000000 13.5273168071 10.0000000000 
C 8.5200000000 0.0000000000 10.0000000000 
C 9.9400000000 0.0000000000 10.0000000000 
C 10.6500000000 1.2297560734 10.0000000000 
C 12.0700000000 1.2297560734 10.0000000000 
C 8.5200000000 2.4595121467 10.0000000000 
C 9.9400000000 2.4595121467 10.0000000000 
C 10.6500000000 3.6892682201 10.0000000000 
C 12.0700000000 3.6892682201 10.0000000000 
C 8.5200000000 4.9190242935 10.0000000000 
C 9.9400000000 4.9190242935 10.0000000000 
C 10.6500000000 6.1487803669 10.0000000000 
C 12.0700000000 6.1487803669 10.0000000000 
C 8.5200000000 7.3785364402 10.0000000000 
C 9.9400000000 7.3785364402 10.0000000000 
C 10.6500000000 8.6082925136 10.0000000000 
C 12.0700000000 8.6082925136 10.0000000000 
C 8.5200000000 9.8380485870 10.0000000000 
C 9.9400000000 9.8380485870 10.0000000000 
C 10.6500000000 11.0678046604 10.0000000000 
C 12.0700000000 11.0678046604 10.0000000000 
C 8.5200000000 12.2975607337 10.0000000000 
C 9.9400000000 12.2975607337 10.0000000000 
C 10.6500000000 13.5273168071 10.0000000000 
C 12.0700000000 13.5273168071 10.0000000000 
C 12.7800000000 0.0000000000 10.0000000000 
C 14.2000000000 0.0000000000 10.0000000000 
C 14.9100000000 1.2297560734 10.0000000000 
C 16.3300000000 1.2297560734 10.0000000000 
C 12.7800000000 2.4595121467 10.0000000000 
C 14.2000000000 2.4595121467 10.0000000000 
C 14.9100000000 3.6892682201 10.0000000000 
C 16.3300000000 3.6892682201 10.0000000000 
C 12.7800000000 4.9190242935 10.0000000000 
C 14.2000000000 4.9190242935 10.0000000000 
C 14.9100000000 6.1487803669 10.0000000000 
C 16.3300000000 6.1487803669 10.0000000000 
C 12.7800000000 7.3785364402 10.0000000000 
C 14.2000000000 7.3785364402 10.0000000000 
C 14.9100000000 8.6082925136 10.0000000000 
C 16.3300000000 8.6082925136 10.0000000000 
C 12.7800000000 9.8380485870 10.0000000000 
C 14.2000000000 9.8380485870 10.0000000000 
C 14.9100000000 11.0678046604 10.0000000000 
C 16.3300000000 11.0678046604 10.0000000000 
C 12.7800000000 12.2975607337 10.0000000000 
C 14.2000000000 12.2975607337 10.0000000000 
C 14.9100000000 13.5273168071 10.0000000000 
C 16.3300000000 13.5273168071 10.0000000000 
C 17.0400000000 0.0000000000 10.0000000000 
C 18.4600000000 0.0000000000 10.0000000000 
C 19.1700000000 1.2297560734 10.0000000000 
C 20.5900000000 1.2297560734 10.0000000000 
C 17.0400000000 2.4595121467 10.0000000000 
C 18.4600000000 2.4595121467 10.0000000000 
C 19.1700000000 3.6892682201 10.0000000000 
C 20.5900000000 3.6892682201 10.0000000000 
C 17.0400000000 4.9190242935 10.0000000000 
C 18.4600000000 4.9190242935 10.0000000000 
C 19.1700000000 6.1487803669 10.0000000000 
C 20.5900000000 6.1487803669 10.0000000000 
C 17.0400000000 7.3785364402 10.0000000000 
C 18.4600000000 7.3785364402 10.0000000000 
C 19.1700000000 8.6082925136 10.0000000000 
C 20.5900000000 8.6082925136 10.0000000000 
C 17.0400000000 9.8380485870 10.0000000000 
C 18.4600000000 9.8380485870 10.0000000000 
C 19.1700000000 11.0678046604 10.0000000000 
C 20.5900000000 11.0678046604 10.0000000000 
C 17.0400000000 12.2975607337 10.0000000000 
C 18.4600000000 12.2975607337 10.0000000000 
C 19.1700000000 13.5273168071 10.0000000000 
C 20.5900000000 13.5273168071 10.0000000000 
C 21.3000000000 0.0000000000 10.0000000000 
C 22.7200000000 0.0000000000 10.0000000000 
C 23.4300000000 1.2297560734 10.0000000000 
C 24.8500000000 1.2297560734 10.0000000000 
C 21.3000000000 2.4595121467 10.0000000000 
C 22.7200000000 2.4595121467 10.0000000000 
C 23.4300000000 3.6892682201 10.0000000000 
C 24.8500000000 3.6892682201 10.0000000000 
C 21.3000000000 4.9190242935 10.0000000000 
C 22.7200000000 4.9190242935 10.0000000000 
C 23.4300000000 6.1487803669 10.0000000000 
C 24.8500000000 6.1487803669 10.0000000000 
C 21.3000000000 7.3785364402 10.0000000000 
C 22.7200000000 7.3785364402 10.0000000000 
C 23.4300000000 8.6082925136 10.0000000000 
C 24.8500000000 8.6082925136 10.0000000000 
C 21.3000000000 9.8380485870 10.0000000000 
C 22.7200000000 9.8380485870 10.0000000000 
C 23.4300000000 11.0678046604 10.0000000000 
C 24.8500000000 11.0678046604 10.0000000000 
C 21.3000000000 12.2975607337 10.0000000000 
C 22.7200000000 12.2975607337 10.0000000000 
C 23.4300000000 13.5273168071 10.0000000000 
C 24.8500000000 13.5273168071 10.0000000000 
Zn 12.7800000000 7.3785364402 11.8000000000 
O 12.7800000000 9.2549248151 12.4229166667 
Zn 12.7800000000 9.2549248151 14.4000000000 
O 12.7800000000 7.3785364402 15.0229166667 
Zn 12.7800000000 7.3785364402 17.0000000000 
O 12.7800000000 9.2549248151 17.6229166667 
Zn 12.7800000000 9.2549248151 19.6000000000 
O 12.7800000000 7.3785364402 20.2229166667 
Zn 12.7800000000 7.3785364402 22.2000000000 
O 12.7800000000 9.2549248151 22.8229166667 
Zn 12.7800000000 9.2549248151 24.8000000000 
O 12.7800000000 7.3785364402 25.4229166667 
Zn 12.7800000000 7.3785364402 27.4000000000 
O 12.7800000000 9.2549248151 28.0229166667 
Zn 12.7800000000 9.2549248151 30.0000000000 
O 12.7800000000 7.3785364402 30.6229166667 
Zn 12.7800000000 7.3785364402 32.6000000000 
O 12.7800000000 9.2549248151 33.2229166667 
Zn 12.7800000000 9.2549248151 35.2000000000 
O 12.7800000000 7.3785364402 35.8229166667 
Zn 12.7800000000 7.3785364402 37.8000000000 
O 12.7800000000 9.2549248151 38.4229166667 
Zn 12.7800000000 9.2549248151 40.4000000000 
O 12.7800000000 7.3785364402 41.0229166667 
Zn 12.7800000000 7.3785364402 43.0000000000 
O 12.7800000000 9.2549248151 43.6229166667 
Zn 12.7800000000 9.2549248151 45.6000000000 
O 12.7800000000 7.3785364402 46.2229166667 
Zn 12.7800000000 7.3785364402 48.2000000000 
O 12.7800000000 9.2549248151 48.8229166667 
Zn 12.7800000000 9.2549248151 50.8000000000 
O 12.7800000000 7.3785364402 51.4229166667 
Zn 11.1550000000 10.1931190025 11.8000000000 
O 11.1550000000 12.0695073774 12.4229166667 
Zn 11.1550000000 12.0695073774 14.4000000000 
O 11.1550000000 10.1931190025 15.0229166667 
Zn 11.1550000000 10.1931190025 17.0000000000 
O 11.1550000000 12.0695073774 17.6229166667 
Zn 11.1550000000 12.0695073774 19.6000000000 
O 11.1550000000 10.1931190025 20.2229166667 
Zn 11.1550000000 10.1931190025 22.2000000000 
O 11.1550000000 12.0695073774 22.8229166667 
Zn 11.1550000000 12.0695073774 24.8000000000 
O 11.1550000000 10.1931190025 25.4229166667 
Zn 11.1550000000 10.1931190025 27.4000000000 
O 11.1550000000 12.0695073774 28.0229166667 
Zn 11.1550000000 12.0695073774 30.0000000000 
O 11.1550000000 10.1931190025 30.6229166667 
Zn 11.1550000000 10.1931190025 32.6000000000 
O 11.1550000000 12.0695073774 33.2229166667 
Zn 11.1550000000 12.0695073774 35.2000000000 
O 11.1550000000 10.1931190025 35.8229166667 
Zn 11.1550000000 10.1931190025 37.8000000000 
O 11.1550000000 12.0695073774 38.4229166667 
Zn 11.1550000000 12.0695073774 40.4000000000 
O 11.1550000000 10.1931190025 41.0229166667 
Zn 11.1550000000 10.1931190025 43.0000000000 
O 11.1550000000 12.0695073774 43.6229166667 
Zn 11.1550000000 12.0695073774 45.6000000000 
O 11.1550000000 10.1931190025 46.2229166667 
Zn 11.1550000000 10.1931190025 48.2000000000 
O 11.1550000000 12.0695073774 48.8229166667 
Zn 11.1550000000 12.0695073774 50.8000000000 
O 11.1550000000 10.1931190025 51.4229166667 
Zn 9.5300000000 13.0077015648 11.8000000000 
O 9.5300000000 14.8840899397 12.4229166667 
Zn 9.5300000000 14.8840899397 14.4000000000 
O 9.5300000000 13.0077015648 15.0229166667 
Zn 9.5300000000 13.0077015648 17.0000000000 
O 9.5300000000 14.8840899397 17.6229166667 
Zn 9.5300000000 14.8840899397 19.6000000000 
O 9.5300000000 13.0077015648 20.2229166667 
Zn 9.5300000000 13.0077015648 22.2000000000 
O 9.5300000000 14.8840899397 22.8229166667 
Zn 9.5300000000 14.8840899397 24.8000000000 
O 9.5300000000 13.0077015648 25.4229166667 
Zn 9.5300000000 13.0077015648 27.4000000000 
O 9.5300000000 14.8840899397 28.0229166667 
Zn 9.5300000000 14.8840899397 30.0000000000 
O 9.5300000000 13.0077015648 30.6229166667 
Zn 9.5300000000 13.0077015648 32.6000000000 
O 9.5300000000 14.8840899397 33.2229166667 
Zn 9.5300000000 14.8840899397 35.2000000000 
O 9.5300000000 13.0077015648 35.8229166667 
Zn 9.5300000000 13.0077015648 37.8000000000 
O 9.5300000000 14.8840899397 38.4229166667 
Zn 9.5300000000 14.8840899397 40.4000000000 
O 9.5300000000 13.0077015648 41.0229166667 
Zn 9.5300000000 13.0077015648 43.0000000000 
O 9.5300000000 14.8840899397 43.6229166667 
Zn 9.5300000000 14.8840899397 45.6000000000 
O 9.5300000000 13.0077015648 46.2229166667 
Zn 9.5300000000 13.0077015648 48.2000000000 
O 9.5300000000 14.8840899397 48.8229166667 
Zn 9.5300000000 14.8840899397 50.8000000000 
O 9.5300000000 13.0077015648 51.4229166667 
Zn 16.0300000000 7.3785364402 11.8000000000 
O 16.0300000000 9.2549248151 12.4229166667 
Zn 16.0300000000 9.2549248151 14.4000000000 
O 16.0300000000 7.3785364402 15.0229166667 
Zn 16.0300000000 7.3785364402 17.0000000000 
O 16.0300000000 9.2549248151 17.6229166667 
Zn 16.0300000000 9.2549248151 19.6000000000 
O 16.0300000000 7.3785364402 20.2229166667 
Zn 16.0300000000 7.3785364402 22.2000000000 
O 16.0300000000 9.2549248151 22.8229166667 
Zn 16.0300000000 9.2549248151 24.8000000000 
O 16.0300000000 7.3785364402 25.4229166667 
Zn 16.0300000000 7.3785364402 27.4000000000 
O 16.0300000000 9.2549248151 28.0229166667 
Zn 16.0300000000 9.2549248151 30.0000000000 
O 16.0300000000 7.3785364402 30.6229166667 
Zn 16.0300000000 7.3785364402 32.6000000000 
O 16.0300000000 9.2549248151 33.2229166667 
Zn 16.0300000000 9.2549248151 35.2000000000 
O 16.0300000000 7.3785364402 35.8229166667 
Zn 16.0300000000 7.3785364402 37.8000000000 
O 16.0300000000 9.2549248151 38.4229166667 
Zn 16.0300000000 9.2549248151 40.4000000000 
O 16.0300000000 7.3785364402 41.0229166667 
Zn 16.0300000000 7.3785364402 43.0000000000 
O 16.0300000000 9.2549248151 43.6229166667 
Zn 16.0300000000 9.2549248151 45.6000000000 
O 16.0300000000 7.3785364402 46.2229166667 
Zn 16.0300000000 7.3785364402 48.2000000000 
O 16.0300000000 9.2549248151 48.8229166667 
Zn 16.0300000000 9.2549248151 50.8000000000 
O 16.0300000000 7.3785364402 51.4229166667 
Zn 14.4050000000 10.1931190025 11.8000000000 
O 14.4050000000 12.0695073774 12.4229166667 
Zn 14.4050000000 12.0695073774 14.4000000000 
O 14.4050000000 10.1931190025 15.0229166667 
Zn 14.4050000000 10.1931190025 17.0000000000 
O 14.4050000000 12.0695073774 17.6229166667 
Zn 14.4050000000 12.0695073774 19.6000000000 
O 14.4050000000 10.1931190025 20.2229166667 
Zn 14.4050000000 10.1931190025 22.2000000000 
O 14.4050000000 12.0695073774 22.8229166667 
Zn 14.4050000000 12.0695073774 24.8000000000 
O 14.4050000000 10.1931190025 25.4229166667 
Zn 14.4050000000 10.1931190025 27.4000000000 
O 14.4050000000 12.0695073774 28.0229166667 
Zn 14.4050000000 12.0695073774 30.0000000000 
O 14.4050000000 10.1931190025 30.6229166667 
Zn 14.4050000000 10.1931190025 32.6000000000 
O 14.4050000000 12.0695073774 33.2229166667 
Zn 14.4050000000 12.0695073774 35.2000000000 
O 14.4050000000 10.1931190025 35.8229166667 
Zn 14.4050000000 10.1931190025 37.8000000000 
O 14.4050000000 12.0695073774 38.4229166667 
Zn 14.4050000000 12.0695073774 40.4000000000 
O 14.4050000000 10.1931190025 41.0229166667 
Zn 14.4050000000 10.1931190025 43.0000000000 
O 14.4050000000 12.0695073774 43.6229166667 
Zn 14.4050000000 12.0695073774 45.6000000000 
O 14.4050000000 10.1931190025 46.2229166667 
Zn 14.4050000000 10.1931190025 48.2000000000 
O 14.4050000000 12.0695073774 48.8229166667 
Zn 14.4050000000 12.0695073774 50.8000000000 
O 14.4050000000 10.1931190025 51.4229166667 
Zn 12.7800000000 13.0077015648 11.8000000000 
O 12.7800000000 14.8840899397 12.4229166667 
Zn 12.7800000000 14.8840899397 14.4000000000 
O 12.7800000000 13.0077015648 15.0229166667 
Zn 12.7800000000 13.0077015648 17.0000000000 
O 12.7800000000 14.8840899397 17.6229166667 
Zn 12.7800000000 14.8840899397 19.6000000000 
O 12.7800000000 13.0077015648 20.2229166667 
Zn 12.7800000000 13.0077015648 22.2000000000 
O 12.7800000000 14.8840899397 22.8229166667 
Zn 12.7800000000 14.8840899397 24.8000000000 
O 12.7800000000 13.0077015648 25.4229166667 
Zn 12.7800000000 13.0077015648 27.4000000000 
O 12.7800000000 14.8840899397 28.0229166667 
Zn 12.7800000000 14.8840899397 30.0000000000 
O 12.7800000000 13.0077015648 30.6229166667 
Zn 12.7800000000 13.0077015648 32.6000000000 
O 12.7800000000 14.8840899397 33.2229166667 
Zn 12.7800000000 14.8840899397 35.2000000000 
O 12.7800000000 13.0077015648 35.8229166667 
Zn 12.7800000000 13.0077015648 37.8000000000 
O 12.7800000000 14.8840899397 38.4229166667 
Zn 12.7800000000 14.8840899397 40.4000000000 
O 12.7800000000 13.0077015648 41.0229166667 
Zn 12.7800000000 13.0077015648 43.0000000000 
O 12.7800000000 14.8840899397 43.6229166667 
Zn 12.7800000000 14.8840899397 45.6000000000 
O 12.7800000000 13.0077015648 46.2229166667 
Zn 12.7800000000 13.0077015648 48.2000000000 
O 12.7800000000 14.8840899397 48.8229166667 
Zn 12.7800000000 14.8840899397 50.8000000000 
O 12.7800000000 13.0077015648 51.4229166667 
Zn 19.2800000000 7.3785364402 11.8000000000 
O 19.2800000000 9.2549248151 12.4229166667 
Zn 19.2800000000 9.2549248151 14.4000000000 
O 19.2800000000 7.3785364402 15.0229166667 
Zn 19.2800000000 7.3785364402 17.0000000000 
O 19.2800000000 9.2549248151 17.6229166667 
Zn 19.2800000000 9.2549248151 19.6000000000 
O 19.2800000000 7.3785364402 20.2229166667 
Zn 19.2800000000 7.3785364402 22.2000000000 
O 19.2800000000 9.2549248151 22.8229166667 
Zn 19.2800000000 9.2549248151 24.8000000000 
O 19.2800000000 7.3785364402 25.4229166667 
Zn 19.2800000000 7.3785364402 27.4000000000 
O 19.2800000000 9.2549248151 28.0229166667 
Zn 19.2800000000 9.2549248151 30.0000000000 
O 19.2800000000 7.3785364402 30.6229166667 
Zn 19.2800000000 7.3785364402 32.6000000000 
O 19.2800000000 9.2549248151 33.2229166667 
Zn 19.2800000000 9.2549248151 35.2000000000 
O 19.2800000000 7.3785364402 35.8229166667 
Zn 19.2800000000 7.3785364402 37.8000000000 
O 19.2800000000 9.2549248151 38.4229166667 
Zn 19.2800000000 9.2549248151 40.4000000000 
O 19.2800000000 7.3785364402 41.0229166667 
Zn 19.2800000000 7.3785364402 43.0000000000 
O 19.2800000000 9.2549248151 43.6229166667 
Zn 19.2800000000 9.2549248151 45.6000000000 
O 19.2800000000 7.3785364402 46.2229166667 
Zn 19.2800000000 7.3785364402 48.2000000000 
O 19.2800000000 9.2549248151 48.8229166667 
Zn 19.2800000000 9.2549248151 50.8000000000 
O 19.2800000000 7.3785364402 51.4229166667 
Zn 17.6550000000 10.1931190025 11.8000000000 
O 17.6550000000 12.0695073774 12.4229166667 
Zn 17.6550000000 12.0695073774 14.4000000000 
O 17.6550000000 10.1931190025 15.0229166667 
Zn 17.6550000000 10.1931190025 17.0000000000 
O 17.6550000000 12.0695073774 17.6229166667 
Zn 17.6550000000 12.0695073774 19.6000000000 
O 17.6550000000 10.1931190025 20.2229166667 
Zn 17.6550000000 10.1931190025 22.2000000000 
O 17.6550000000 12.0695073774 22.8229166667 
Zn 17.6550000000 12.0695073774 24.8000000000 
O 17.6550000000 10.1931190025 25.4229166667 
Zn 17.6550000000 10.1931190025 27.4000000000 
O 17.6550000000 12.0695073774 28.0229166667 
Zn 17.6550000000 12.0695073774 30.0000000000 
O 17.6550000000 10.1931190025 30.6229166667 
Zn 17.6550000000 10.1931190025 32.6000000000 
O 17.6550000000 12.0695073774 33.2229166667 
Zn 17.6550000000 12.0695073774 35.2000000000 
O 17.6550000000 10.1931190025 35.8229166667 
Zn 17.6550000000 10.1931190025 37.8000000000 
O 17.6550000000 12.0695073774 38.4229166667 
Zn 17.6550000000 12.0695073774 40.4000000000 
O 17.6550000000 10.1931190025 41.0229166667 
Zn 17.6550000000 10.1931190025 43.0000000000 
O 17.6550000000 12.0695073774 43.6229166667 
Zn 17.6550000000 12.0695073774 45.6000000000 
O 17.6550000000 10.1931190025 46.2229166667 
Zn 17.6550000000 10.1931190025 48.2000000000 
O 17.6550000000 12.0695073774 48.8229166667 
Zn 17.6550000000 12.0695073774 50.8000000000 
O 17.6550000000 10.1931190025 51.4229166667 
Zn 16.0300000000 13.0077015648 11.8000000000 
O 16.0300000000 14.8840899397 12.4229166667 
Zn 16.0300000000 14.8840899397 14.4000000000 
O 16.0300000000 13.0077015648 15.0229166667 
Zn 16.0300000000 13.0077015648 17.0000000000 
O 16.0300000000 14.8840899397 17.6229166667 
Zn 16.0300000000 14.8840899397 19.6000000000 
O 16.0300000000 13.0077015648 20.2229166667 
Zn 16.0300000000 13.0077015648 22.2000000000 
O 16.0300000000 14.8840899397 22.8229166667 
Zn 16.0300000000 14.8840899397 24.8000000000 
O 16.0300000000 13.0077015648 25.4229166667 
Zn 16.0300000000 13.0077015648 27.4000000000 
O 16.0300000000 14.8840899397 28.0229166667 
Zn 16.0300000000 14.8840899397 30.0000000000 
O 16.0300000000 13.0077015648 30.6229166667 
Zn 16.0300000000 13.0077015648 32.6000000000 
O 16.0300000000 14.8840899397 33.2229166667 
Zn 16.0300000000 14.8840899397 35.2000000000 
O 16.0300000000 13.0077015648 35.8229166667 
Zn 16.0300000000 13.0077015648 37.8000000000 
O 16.0300000000 14.8840899397 38.4229166667 
Zn 16.0300000000 14.8840899397 40.4000000000 
O 16.0300000000 13.0077015648 41.0229166667 
Zn 16.0300000000 13.0077015648 43.0000000000 
O 16.0300000000 14.8840899397 43.6229166667 
Zn 16.0300000000 14.8840899397 45.6000000000 
O 16.0300000000 13.0077015648 46.2229166667 
Zn 16.0300000000 13.0077015648 48.2000000000 
O 16.0300000000 14.8840899397 48.8229166667 
Zn 16.0300000000 14.8840899397 50.8000000000 
O 16.0300000000 13.0077015648 51.4229166667 

