&CONTROL
   calculation      = 'scf'
   outdir           = './tmp'
   prefix           = 'mb'
   pseudo_dir       = './pseudo'
/
&SYSTEM
   ibrav            = 0
   ecutwfc          = 40.0
   ecutrho          = 320.0
   occupations      = 'fixed'
   ntyp             = 5
   nat              = 39
/
&ELECTRONS
   electron_maxstep = 60
   conv_thr         = 1e-05
   mixing_beta      = 0.3
/
&IONS
/
&CELL
/

ATOMIC_SPECIES
C 12.011 C.pbe-n-kjpaw_psl.1.0.0.UPF
N 14.007 N.pbe-n-kjpaw_psl.1.0.0.UPF
S 32.06 S.pbe-n-kjpaw_psl.1.0.0.UPF
H 1.008 H.pbe-rrkjus.UPF
Cl 35.45 Cl.pbe-n-kjpaw_psl.1.0.0.UPF

K_POINTS automatic
1 1 1  0 0 0

CELL_PARAMETERS angstrom
20.00000000000000 0.00000000000000 0.00000000000000
0.00000000000000 20.00000000000000 0.00000000000000
0.00000000000000 0.00000000000000 20.00000000000000

ATOMIC_POSITIONS angstrom
C 3.6794439950 9.9441077400 11.3576491500 
N 4.8727136250 9.1037123100 11.5169481200 
C 4.7168428750 7.6438109900 11.5170513400 
C 6.1844687550 9.7062869400 11.6722068500 
C 7.3551606050 8.9754484300 11.3830019000 
C 8.6155656750 9.5621158300 11.5350469600 
C 8.7435496750 10.8950220700 11.9803109100 
C 7.5828973250 11.6198803500 12.2671931200 
C 6.3207284950 11.0380772800 12.1164702800 
N 9.9552719850 11.5105554700 12.1438526500 
C 11.1988399550 10.9911539800 11.9223699600 
C 12.3249558250 11.7752500000 12.1461119800 
C 13.6087037550 11.2639445500 11.9254695900 
C 13.8309238250 9.9324892300 11.4664394700 
N 15.0602249550 9.4681438100 11.2636812800 
C 16.2528945550 10.3052124500 11.5028933300 
C 15.2984614350 8.0904650100 10.7884184900 
C 12.6871250350 9.1196507800 11.2336181400 
C 11.4025530350 9.6140255000 11.4486139600 
S 10.0210097850 8.6900798200 11.1872666300 
H 3.8628619550 10.7175909800 10.5818838800 
H 3.4303790450 10.4326849600 12.3227392600 
H 2.8001763750 9.3484360400 11.0329711500 
H 5.1104736850 7.2221838600 10.5686636300 
H 3.6511812150 7.3464085000 11.6132835600 
H 5.2642760950 7.2053755000 12.3783539600 
H 7.2975503550 7.9550933200 11.0289422500 
H 7.6555797450 12.6441007900 12.6127333700 
H 5.4540751150 11.6360039400 12.3613795500 
H 12.2121503450 12.7946245000 12.4953276100 
H 14.4264122150 11.9414378400 12.1245422700 
H 16.2937243550 10.6151187300 12.5691023100 
H 17.1998236250 9.7684469400 11.2860740800 
H 16.2297901050 11.1992979700 10.8436605600 
H 16.3781033750 7.8616303400 10.6709350200 
H 14.8904264150 7.3592079300 11.5186936400 
H 14.8264900250 7.9433434400 9.7933659700 
H 12.7694248150 8.0997239000 10.8852944000 
Cl 10.0210097850 8.6900798200 7.3872666300 

