&CONTROL
   calculation      = 'relax'
   outdir           = './tmp'
   prefix           = 'zno_slab'
   pseudo_dir       = './pseudo'
/
&SYSTEM
   ibrav            = 0
   ecutwfc          = 40.0
   ecutrho          = 320.0
   occupations      = 'smearing'
   degauss          = 0.02
   smearing         = 'mp'
   ntyp             = 2
   nat              = 108
/
&ELECTRONS
   electron_maxstep = 60
   conv_thr         = 1e-05
   mixing_beta      = 0.3
/
&IONS
/
&CELL
/

ATOMIC_SPECIES
Zn 65.38 Zn.pbe-dnl-kjpaw_psl.1.0.0.UPF
O 15.999 O.pbe-n-kjpaw_psl.1.0.0.UPF

K_POINTS automatic
9 9 4  0 0 0

CELL_PARAMETERS angstrom
9.75000000000000 0.00000000000000 0.00000000000000
-4.87500000000000 8.44374768689828 0.00000000000000
0.00000000000000 0.00000000000000 15.60000000000000

ATOMIC_POSITIONS angstrom
Zn 0.0000000000 0.0000000000 0.0000000000 
O -0.0000000000 1.8763883749 0.6229166667 
Zn -0.0000000000 1.8763883749 2.6000000000 
O 0.0000000000 0.0000000000 3.2229166667 
Zn 0.0000000000 0.0000000000 5.2000000000 
O -0.0000000000 1.8763883749 5.8229166667 
Zn -0.0000000000 1.8763883749 7.8000000000 
O 0.0000000000 0.0000000000 8.4229166667 
Zn 0.0000000000 0.0000000000 10.4000000000 
O -0.0000000000 1.8763883749 11.0229166667 
Zn -0.0000000000 1.8763883749 13.0000000000 
O 0.0000000000 0.0000000000 13.6229166667 
Zn -1.6250000000 2.8145825623 0.0000000000 
O -1.6250000000 4.6909709372 0.6229166667 
Zn -1.6250000000 4.6909709372 2.6000000000 
O -1.6250000000 2.8145825623 3.2229166667 
Zn -1.6250000000 2.8145825623 5.2000000000 
O -1.6250000000 4.6909709372 5.8229166667 
Zn -1.6250000000 4.6909709372 7.8000000000 
O -1.6250000000 2.8145825623 8.4229166667 
Zn -1.6250000000 2.8145825623 10.4000000000 
O -1.6250000000 4.6909709372 11.0229166667 
Zn -1.6250000000 4.6909709372 13.0000000000 
O -1.6250000000 2.8145825623 13.6229166667 
Zn -3.2500000000 5.6291651246 0.0000000000 
O -3.2500000000 7.5055534995 0.6229166667 
Zn -3.2500000000 7.5055534995 2.6000000000 
O -3.2500000000 5.6291651246 3.2229166667 
Zn -3.2500000000 5.6291651246 5.2000000000 
O -3.2500000000 7.5055534995 5.8229166667 
Zn -3.2500000000 7.5055534995 7.8000000000 
O -3.2500000000 5.6291651246 8.4229166667 
Zn -3.2500000000 5.6291651246 10.4000000000 
O -3.2500000000 7.5055534995 11.0229166667 
Zn -3.2500000000 7.5055534995 13.0000000000 
O -3.2500000000 5.6291651246 13.6229166667 
Zn 3.2500000000 0.0000000000 0.0000000000 
O 3.2500000000 1.8763883749 0.6229166667 
Zn 3.2500000000 1.8763883749 2.6000000000 
O 3.2500000000 0.0000000000 3.2229166667 
Zn 3.2500000000 0.0000000000 5.2000000000 
O 3.2500000000 1.8763883749 5.8229166667 
Zn 3.2500000000 1.8763883749 7.8000000000 
O 3.2500000000 0.0000000000 8.4229166667 
Zn 3.2500000000 0.0000000000 10.4000000000 
O 3.2500000000 1.8763883749 11.0229166667 
Zn 3.2500000000 1.8763883749 13.0000000000 
O 3.2500000000 0.0000000000 13.6229166667 
Zn 1.6250000000 2.8145825623 0.0000000000 
O 1.6250000000 4.6909709372 0.6229166667 
Zn 1.6250000000 4.6909709372 2.6000000000 
O 1.6250000000 2.8145825623 3.2229166667 
Zn 1.6250000000 2.8145825623 5.2000000000 
O 1.6250000000 4.6909709372 5.8229166667 
Zn 1.6250000000 4.6909709372 7.8000000000 
O 1.6250000000 2.8145825623 8.4229166667 
Zn 1.6250000000 2.8145825623 10.4000000000 
O 1.6250000000 4.6909709372 11.0229166667 
Zn 1.6250000000 4.6909709372 13.0000000000 
O 1.6250000000 2.8145825623 13.6229166667 
Zn 0.0000000000 5.6291651246 0.0000000000 
O -0.0000000000 7.5055534995 0.6229166667 
Zn -0.0000000000 7.5055534995 2.6000000000 
O 0.0000000000 5.6291651246 3.2229166667 
Zn 0.0000000000 5.6291651246 5.2000000000 
O -0.0000000000 7.5055534995 5.8229166667 
Zn -0.0000000000 7.5055534995 7.8000000000 
O 0.0000000000 5.6291651246 8.4229166667 
Zn 0.0000000000 5.6291651246 10.4000000000 
O -0.0000000000 7.5055534995 11.0229166667 
Zn -0.0000000000 7.5055534995 13.0000000000 
O 0.0000000000 5.6291651246 13.6229166667 
Zn 6.5000000000 0.0000000000 0.0000000000 
O 6.5000000000 1.8763883749 0.6229166667 
Zn 6.5000000000 1.8763883749 2.6000000000 
O 6.5000000000 0.0000000000 3.2229166667 
Zn 6.5000000000 0.0000000000 5.2000000000 
O 6.5000000000 1.8763883749 5.8229166667 
Zn 6.5000000000 1.8763883749 7.8000000000 
O 6.5000000000 0.0000000000 8.4229166667 
Zn 6.5000000000 0.0000000000 10.4000000000 
O 6.5000000000 1.8763883749 11.0229166667 
Zn 6.5000000000 1.8763883749 13.0000000000 
O 6.5000000000 0.0000000000 13.6229166667 
Zn 4.8750000000 2.8145825623 0.0000000000 
O 4.8750000000 4.6909709372 0.6229166667 
Zn 4.8750000000 4.6909709372 2.6000000000 
O 4.8750000000 2.8145825623 3.2229166667 
Zn 4.8750000000 2.8145825623 5.2000000000 
O 4.8750000000 4.6909709372 5.8229166667 
Zn 4.8750000000 4.6909709372 7.8000000000 
O 4.8750000000 2.8145825623 8.4229166667 
Zn 4.8750000000 2.8145825623 10.4000000000 
O 4.8750000000 4.6909709372 11.0229166667 
Zn 4.8750000000 4.6909709372 13.0000000000 
O 4.8750000000 2.8145825623 13.6229166667 
Zn 3.2500000000 5.6291651246 0.0000000000 
O 3.2500000000 7.5055534995 0.6229166667 
Zn 3.2500000000 7.5055534995 2.6000000000 
O 3.2500000000 5.6291651246 3.2229166667 
Zn 3.2500000000 5.6291651246 5.2000000000 
O 3.2500000000 7.5055534995 5.8229166667 
Zn 3.2500000000 7.5055534995 7.8000000000 
O 3.2500000000 5.6291651246 8.4229166667 
Zn 3.2500000000 5.6291651246 10.4000000000 
O 3.2500000000 7.5055534995 11.0229166667 
Zn 3.2500000000 7.5055534995 13.0000000000 
O 3.2500000000 5.6291651246 13.6229166667 

