&CONTROL
   calculation      = 'scf'
   outdir           = './tmp'
   prefix           = 'graphene'
   pseudo_dir       = './pseudo'
/
&SYSTEM
   ecutwfc          = 50.0
   ecutrho          = 400.0
   occupations      = 'smearing'
   degauss          = 0.02
   smearing         = 'mp'
   assume_isolated  = '2D'
   ntyp             = 1
   nat              = 144
   ibrav            = 0
/
&ELECTRONS
   conv_thr         = 1e-08
/
&IONS
/
&CELL
/

ATOMIC_SPECIES
C 12.011 C.pbe-n-kjpaw_psl.1.0.0.UPF

K_POINTS automatic
4 4 1  0 0 0

CELL_PARAMETERS angstrom
25.56000000000000 0.00000000000000 0.00000000000000
0.00000000000000 14.75707288048683 0.00000000000000
0.00000000000000 0.00000000000000 15.00000000000000

ATOMIC_POSITIONS angstrom
C 0.0000000000 0.0000000000 0.0000000000 
C 1.4200000000 0.0000000000 0.0000000000 
C 2.1300000000 1.2297560734 0.0000000000 
C 3.5500000000 1.2297560734 0.0000000000 
C 0.0000000000 2.4595121467 0.0000000000 
C 1.4200000000 2.4595121467 0.0000000000 
C 2.1300000000 3.6892682201 0.0000000000 
C 3.5500000000 3.6892682201 0.0000000000 
C 0.0000000000 4.9190242935 0.0000000000 
C 1.4200000000 4.9190242935 0.0000000000 
C 2.1300000000 6.1487803669 0.0000000000 
C 3.5500000000 6.1487803669 0.0000000000 
C 0.0000000000 7.3785364402 0.0000000000 
C 1.4200000000 7.3785364402 0.0000000000 
C 2.1300000000 8.6082925136 0.0000000000 
C 3.5500000000 8.6082925136 0.0000000000 
C 0.0000000000 9.8380485870 0.0000000000 
C 1.4200000000 9.8380485870 0.0000000000 
C 2.1300000000 11.0678046604 0.0000000000 
C 3.5500000000 11.0678046604 0.0000000000 
C 0.0000000000 12.2975607337 0.0000000000 
C 1.4200000000 12.2975607337 0.0000000000 
C 2.1300000000 13.5273168071 0.0000000000 
C 3.5500000000 13.5273168071 0.0000000000 
C 4.2600000000 0.0000000000 0.0000000000 
C 5.6800000000 0.0000000000 0.0000000000 
C 6.3900000000 1.2297560734 0.0000000000 
C 7.8100000000 1.2297560734 0.0000000000 
C 4.2600000000 2.4595121467 0.0000000000 
C 5.6800000000 2.4595121467 0.0000000000 
C 6.3900000000 3.6892682201 0.0000000000 
C 7.8100000000 3.6892682201 0.0000000000 
C 4.2600000000 4.9190242935 0.0000000000 
C 5.6800000000 4.9190242935 0.0000000000 
C 6.3900000000 6.1487803669 0.0000000000 
C 7.8100000000 6.1487803669 0.0000000000 
C 4.2600000000 7.3785364402 0.0000000000 
C 5.6800000000 7.3785364402 0.0000000000 
C 6.3900000000 8.6082925136 0.0000000000 
C 7.8100000000 8.6082925136 0.0000000000 
C 4.2600000000 9.8380485870 0.0000000000 
C 5.6800000000 9.8380485870 0.0000000000 
C 6.3900000000 11.0678046604 0.0000000000 
C 7.8100000000 11.0678046604 0.0000000000 
C 4.2600000000 12.2975607337 0.0000000000 
C 5.6800000000 12.2975607337 0.0000000000 
C 6.3900000000 13.5273168071 0.0000000000 
C 7.8100000000 13.5273168071 0.0000000000 
C 8.5200000000 0.0000000000 0.0000000000 
C 9.9400000000 0.0000000000 0.0000000000 
C 10.6500000000 1.2297560734 0.0000000000 
C 12.0700000000 1.2297560734 0.0000000000 
C 8.5200000000 2.4595121467 0.0000000000 
C 9.9400000000 2.4595121467 0.0000000000 
C 10.6500000000 3.6892682201 0.0000000000 
C 12.0700000000 3.6892682201 0.0000000000 
C 8.5200000000 4.9190242935 0.0000000000 
C 9.9400000000 4.9190242935 0.0000000000 
C 10.6500000000 6.1487803669 0.0000000000 
C 12.0700000000 6.1487803669 0.0000000000 
C 8.5200000000 7.3785364402 0.0000000000 
C 9.9400000000 7.3785364402 0.0000000000 
C 10.6500000000 8.6082925136 0.0000000000 
C 12.0700000000 8.6082925136 0.0000000000 
C 8.5200000000 9.8380485870 0.0000000000 
C 9.9400000000 9.8380485870 0.0000000000 
C 10.6500000000 11.0678046604 0.0000000000 
C 12.0700000000 11.0678046604 0.0000000000 
C 8.5200000000 12.2975607337 0.0000000000 
C 9.9400000000 12.2975607337 0.0000000000 
C 10.6500000000 13.5273168071 0.0000000000 
C 12.0700000000 13.5273168071 0.0000000000 
C 12.7800000000 0.0000000000 0.0000000000 
C 14.2000000000 0.0000000000 0.0000000000 
C 14.9100000000 1.2297560734 0.0000000000 
C 16.3300000000 1.2297560734 0.0000000000 
C 12.7800000000 2.4595121467 0.0000000000 
C 14.2000000000 2.4595121467 0.0000000000 
C 14.9100000000 3.6892682201 0.0000000000 
C 16.3300000000 3.6892682201 0.0000000000 
C 12.7800000000 4.9190242935 0.0000000000 
C 14.2000000000 4.9190242935 0.0000000000 
C 14.9100000000 6.1487803669 0.0000000000 
C 16.3300000000 6.1487803669 0.0000000000 
C 12.7800000000 7.3785364402 0.0000000000 
C 14.2000000000 7.3785364402 0.0000000000 
C 14.9100000000 8.6082925136 0.0000000000 
C 16.3300000000 8.6082925136 0.0000000000 
C 12.7800000000 9.8380485870 0.0000000000 
C 14.2000000000 9.8380485870 0.0000000000 
C 14.9100000000 11.0678046604 0.0000000000 
C 16.3300000000 11.0678046604 0.0000000000 
C 12.7800000000 12.2975607337 0.0000000000 
C 14.2000000000 12.2975607337 0.0000000000 
C 14.9100000000 13.5273168071 0.0000000000 
C 16.3300000000 13.5273168071 0.0000000000 
C 17.0400000000 0.0000000000 0.0000000000 
C 18.4600000000 0.0000000000 0.0000000000 
C 19.1700000000 1.2297560734 0.0000000000 
C 20.5900000000 1.2297560734 0.0000000000 
C 17.0400000000 2.4595121467 0.0000000000 
C 18.4600000000 2.4595121467 0.0000000000 
C 19.1700000000 3.6892682201 0.0000000000 
C 20.5900000000 3.6892682201 0.0000000000 
C 17.0400000000 4.9190242935 0.0000000000 
C 18.4600000000 4.9190242935 0.0000000000 
C 19.1700000000 6.1487803669 0.0000000000 
C 20.5900000000 6.1487803669 0.0000000000 
C 17.0400000000 7.3785364402 0.0000000000 
C 18.4600000000 7.3785364402 0.0000000000 
C 19.1700000000 8.6082925136 0.0000000000 
C 20.5900000000 8.6082925136 0.0000000000 
C 17.0400000000 9.8380485870 0.0000000000 
C 18.4600000000 9.8380485870 0.0000000000 
C 19.1700000000 11.0678046604 0.0000000000 
C 20.5900000000 11.0678046604 0.0000000000 
C 17.0400000000 12.2975607337 0.0000000000 
C 18.4600000000 12.2975607337 0.0000000000 
C 19.1700000000 13.5273168071 0.0000000000 
C 20.5900000000 13.5273168071 0.0000000000 
C 21.3000000000 0.0000000000 0.0000000000 
C 22.7200000000 0.0000000000 0.0000000000 
C 23.4300000000 1.2297560734 0.0000000000 
C 24.8500000000 1.2297560734 0.0000000000 
C 21.3000000000 2.4595121467 0.0000000000 
C 22.7200000000 2.4595121467 0.0000000000 
C 23.4300000000 3.6892682201 0.0000000000 
C 24.8500000000 3.6892682201 0.0000000000 
C 21.3000000000 4.9190242935 0.0000000000 
C 22.7200000000 4.9190242935 0.0000000000 
C 23.4300000000 6.1487803669 0.0000000000 
C 24.8500000000 6.1487803669 0.0000000000 
C 21.3000000000 7.3785364402 0.0000000000 
C 22.7200000000 7.3785364402 0.0000000000 
C 23.4300000000 8.6082925136 0.0000000000 
C 24.8500000000 8.6082925136 0.0000000000 
C 21.3000000000 9.8380485870 0.0000000000 
C 22.7200000000 9.8380485870 0.0000000000 
C 23.4300000000 11.0678046604 0.0000000000 
C 24.8500000000 11.0678046604 0.0000000000 
C 21.3000000000 12.2975607337 0.0000000000 
C 22.7200000000 12.2975607337 0.0000000000 
C 23.4300000000 13.5273168071 0.0000000000 
C 24.8500000000 13.5273168071 0.0000000000 

