&CONTROL
   calculation      = 'scf'
   outdir           = './tmp'
   prefix           = 'mb_gz'
   pseudo_dir       = './pseudo'
/
&SYSTEM
   ibrav            = 0
   ecutwfc          = 40.0
   ecutrho          = 320.0
   occupations      = 'fixed'
   ntyp             = 7
   nat              = 471
/
&ELECTRONS
   electron_maxstep = 80
   conv_thr         = 1e-05
   mixing_beta      = 0.3
/
&IONS
/
&CELL
/

ATOMIC_SPECIES
C 12.011 C.pbe-n-kjpaw_psl.1.0.0.UPF
Zn 65.38 Zn.pbe-dnl-kjpaw_psl.1.0.0.UPF
O 15.999 O.pbe-n-kjpaw_psl.1.0.0.UPF
N 14.007 N.pbe-n-kjpaw_psl.1.0.0.UPF
S 32.06 S.pbe-n-kjpaw_psl.1.0.0.UPF
H 1.008 H.pbe-rrkjus.UPF
Cl 35.45 Cl.pbe-n-kjpaw_psl.1.0.0.UPF

K_POINTS automatic
2 2 1  0 0 0

CELL_PARAMETERS angstrom
25.56000000000000 0.00000000000000 0.00000000000000
0.00000000000000 14.75707288048683 0.00000000000000
0.00000000000000 0.00000000000000 61.42291666666667

ATOMIC_POSITIONS angstrom
C 0.0000000000 0.0000000000 10.0000000000 
C 1.4200000000 0.0000000000 10.0000000000 
C 2.1300000000 1.2297560734 10.0000000000 
C 3.5500000000 1.2297560734 10.0000000000 
C 0.0000000000 2.4595121467 10.0000000000 
C 1.4200000000 2.4595121467 10.0000000000 
C 2.1300000000 3.6892682201 10.0000000000 
C 3.5500000000 3.6892682201 10.0000000000 
C 0.0000000000 4.9190242935 10.0000000000 
C 1.4200000000 4.9190242935 10.0000000000 
C 2.1300000000 6.1487803669 10.0000000000 
C 3.5500000000 6.1487803669 10.0000000000 
C 0.0000000000 7.3785364402 10.0000000000 
C 1.4200000000 7.3785364402 10.0000000000 
C 2.1300000000 8.6082925136 10.0000000000 
C 3.5500000000 8.6082925136 10.0000000000 
C 0.0000000000 9.8380485870 10.0000000000 
C 1.4200000000 9.8380485870 10.0000000000 
C 2.1300000000 11.0678046604 10.0000000000 
C 3.5500000000 11.0678046604 10.0000000000 
C 0.0000000000 12.2975607337 10.0000000000 
C 1.4200000000 12.2975607337 10.0000000000 
C 2.1300000000 13.5273168071 10.0000000000 
C 3.5500000000 13.5273168071 10.0000000000 
C 4.2600000000 0.0000000000 10.0000000000 
C 5.6800000000 0.0000000000 10.0000000000 
C 6.3900000000 1.2297560734 10.0000000000 
C 7.8100000000 1.2297560734 10.0000000000 
C 4.2600000000 2.4595121467 10.0000000000 
C 5.6800000000 2.4595121467 10.0000000000 
C 6.3900000000 3.6892682201 10.0000000000 
C 7.8100000000 3.6892682201 10.0000000000 
C 4.2600000000 4.9190242935 10.0000000000 
C 5.6800000000 4.9190242935 10.0000000000 
C 6.3900000000 6.1487803669 10.0000000000 
C 7.8100000000 6.1487803669 10.0000000000 
C 4.2600000000 7.3785364402 10.0000000000 
C 5.6800000000 7.3785364402 10.0000000000 
C 6.3900000000 8.6082925136 10.0000000000 
C 7.8100000000 8.6082925136 10.0000000000 
C 4.2600000000 9.8380485870 10.0000000000 
C 5.6800000000 9.8380485870 10.0000000000 
C 6.3900000000 11.0678046604 10.0000000000 
C 7.8100000000 11.0678046604 10.0000000000 
C 4.2600000000 12.2975607337 10.0000000000 
C 5.6800000000 12.2975607337 10.0000000000 
C 6.3900000000 13.5273168071 10.0000000000 
C 7.8100000000 13.5273168071 10.0000000000 
C 8.5200000000 0.0000000000 10.0000000000 
C 9.9400000000 0.0000000000 10.0000000000 
C 10.6500000000 1.2297560734 10.0000000000 
C 12.0700000000 1.2297560734 10.0000000000 
C 8.5200000000 2.4595121467 10.0000000000 
C 9.9400000000 2.4595121467 10.0000000000 
C 10.6500000000 3.6892682201 10.0000000000 
C 12.0700000000 3.6892682201 10.0000000000 
C 8.5200000000 4.9190242935 10.0000000000 
C 9.9400000000 4.9190242935 10.0000000000 
C 10.6500000000 6.1487803669 10.0000000000 
C 12.0700000000 6.1487803669 10.0000000000 
C 8.5200000000 7.3785364402 10.0000000000 
C 9.9400000000 7.3785364402 10.0000000000 
C 10.6500000000 8.6082925136 10.0000000000 
C 12.0700000000 8.6082925136 10.0000000000 
C 8.5200000000 9.8380485870 10.0000000000 
C 9.9400000000 9.8380485870 10.0000000000 
C 10.6500000000 11.0678046604 10.0000000000 
C 12.0700000000 11.0678046604 10.0000000000 
C 8.5200000000 12.2975607337 10.0000000000 
C 9.9400000000 12.2975607337 10.0000000000 
C 10.6500000000 13.5273168071 10.0000000000 
C 12.0700000000 13.5273168071 10.0000000000 
C 12.7800000000 0.0000000000 10.0000000000 
C 14.2000000000 0.0000000000 10.0000000000 
C 14.9100000000 1.2297560734 10.0000000000 
C 16.3300000000 1.2297560734 10.0000000000 
C 12.7800000000 2.4595121467 10.0000000000 
C 14.2000000000 2.4595121467 10.0000000000 
C 14.9100000000 3.6892682201 10.0000000000 
C 16.3300000000 3.6892682201 10.0000000000 
C 12.7800000000 4.9190242935 10.0000000000 
C 14.2000000000 4.9190242935 10.0000000000 
C 14.9100000000 6.1487803669 10.0000000000 
C 16.3300000000 6.1487803669 10.0000000000 
C 12.7800000000 7.3785364402 10.0000000000 
C 14.2000000000 7.3785364402 10.0000000000 
C 14.9100000000 8.6082925136 10.0000000000 
C 16.3300000000 8.6082925136 10.0000000000 
C 12.7800000000 9.8380485870 10.0000000000 
C 14.2000000000 9.8380485870 10.0000000000 
C 14.9100000000 11.0678046604 10.0000000000 
C 16.3300000000 11.0678046604 10.0000000000 
C 12.7800000000 12.2975607337 10.0000000000 
C 14.2000000000 12.2975607337 10.0000000000 
C 14.9100000000 13.5273168071 10.0000000000 
C 16.3300000000 13.5273168071 10.0000000000 
C 17.0400000000 0.0000000000 10.0000000000 
C 18.4600000000 0.0000000000 10.0000000000 
C 19.1700000000 1.2297560734 10.0000000000 
C 20.5900000000 1.2297560734 10.0000000000 
C 17.0400000000 2.4595121467 10.0000000000 
C 18.4600000000 2.4595121467 10.0000000000 
C 19.1700000000 3.6892682201 10.0000000000 
C 20.5900000000 3.6892682201 10.0000000000 
C 17.0400000000 4.9190242935 10.0000000000 
C 18.4600000000 4.9190242935 10.0000000000 
C 19.1700000000 6.1487803669 10.0000000000 
C 20.5900000000 6.1487803669 10.0000000000 
C 17.0400000000 7.3785364402 10.0000000000 
C 18.4600000000 7.3785364402 10.0000000000 
C 19.1700000000 8.6082925136 10.0000000000 
C 20.5900000000 8.6082925136 10.0000000000 
C 17.0400000000 9.8380485870 10.0000000000 
C 18.4600000000 9.8380485870 10.0000000000 
C 19.1700000000 11.0678046604 10.0000000000 
C 20.5900000000 11.0678046604 10.0000000000 
C 17.0400000000 12.2975607337 10.0000000000 
C 18.4600000000 12.2975607337 10.0000000000 
C 19.1700000000 13.5273168071 10.0000000000 
C 20.5900000000 13.5273168071 10.0000000000 
C 21.3000000000 0.0000000000 10.0000000000 
C 22.7200000000 0.0000000000 10.0000000000 
C 23.4300000000 1.2297560734 10.0000000000 
C 24.8500000000 1.2297560734 10.0000000000 
C 21.3000000000 2.4595121467 10.0000000000 
C 22.7200000000 2.4595121467 10.0000000000 
C 23.4300000000 3.6892682201 10.0000000000 
C 24.8500000000 3.6892682201 10.0000000000 
C 21.3000000000 4.9190242935 10.0000000000 
C 22.7200000000 4.9190242935 10.0000000000 
C 23.4300000000 6.1487803669 10.0000000000 
C 24.8500000000 6.1487803669 10.0000000000 
C 21.3000000000 7.3785364402 10.0000000000 
C 22.7200000000 7.3785364402 10.0000000000 
C 23.4300000000 8.6082925136 10.0000000000 
C 24.8500000000 8.6082925136 10.0000000000 
C 21.3000000000 9.8380485870 10.0000000000 
C 22.7200000000 9.8380485870 10.0000000000 
C 23.4300000000 11.0678046604 10.0000000000 
C 24.8500000000 11.0678046604 10.0000000000 
C 21.3000000000 12.2975607337 10.0000000000 
C 22.7200000000 12.2975607337 10.0000000000 
C 23.4300000000 13.5273168071 10.0000000000 
C 24.8500000000 13.5273168071 10.0000000000 
Zn 12.7800000000 7.3785364402 11.8000000000 
O 12.7800000000 9.2549248151 12.4229166667 
Zn 12.7800000000 9.2549248151 14.4000000000 
O 12.7800000000 7.3785364402 15.0229166667 
Zn 12.7800000000 7.3785364402 17.0000000000 
O 12.7800000000 9.2549248151 17.6229166667 
Zn 12.7800000000 9.2549248151 19.6000000000 
O 12.7800000000 7.3785364402 20.2229166667 
Zn 12.7800000000 7.3785364402 22.2000000000 
O 12.7800000000 9.2549248151 22.8229166667 
Zn 12.7800000000 9.2549248151 24.8000000000 
O 12.7800000000 7.3785364402 25.4229166667 
Zn 12.7800000000 7.3785364402 27.4000000000 
O 12.7800000000 9.2549248151 28.0229166667 
Zn 12.7800000000 9.2549248151 30.0000000000 
O 12.7800000000 7.3785364402 30.6229166667 
Zn 12.7800000000 7.3785364402 32.6000000000 
O 12.7800000000 9.2549248151 33.2229166667 
Zn 12.7800000000 9.2549248151 35.2000000000 
O 12.7800000000 7.3785364402 35.8229166667 
Zn 12.7800000000 7.3785364402 37.8000000000 
O 12.7800000000 9.2549248151 38.4229166667 
Zn 12.7800000000 9.2549248151 40.4000000000 
O 12.7800000000 7.3785364402 41.0229166667 
Zn 12.7800000000 7.3785364402 43.0000000000 
O 12.7800000000 9.2549248151 43.6229166667 
Zn 12.7800000000 9.2549248151 45.6000000000 
O 12.7800000000 7.3785364402 46.2229166667 
Zn 12.7800000000 7.3785364402 48.2000000000 
O 12.7800000000 9.2549248151 48.8229166667 
Zn 12.7800000000 9.2549248151 50.8000000000 
O 12.7800000000 7.3785364402 51.4229166667 
Zn 11.1550000000 10.1931190025 11.8000000000 
O 11.1550000000 12.0695073774 12.4229166667 
Zn 11.1550000000 12.0695073774 14.4000000000 
O 11.1550000000 10.1931190025 15.0229166667 
Zn 11.1550000000 10.1931190025 17.0000000000 
O 11.1550000000 12.0695073774 17.6229166667 
Zn 11.1550000000 12.0695073774 19.6000000000 
O 11.1550000000 10.1931190025 20.2229166667 
Zn 11.1550000000 10.1931190025 22.2000000000 
O 11.1550000000 12.0695073774 22.8229166667 
Zn 11.1550000000 12.0695073774 24.8000000000 
O 11.1550000000 10.1931190025 25.4229166667 
Zn 11.1550000000 10.1931190025 27.4000000000 
O 11.1550000000 12.0695073774 28.0229166667 
Zn 11.1550000000 12.0695073774 30.0000000000 
O 11.1550000000 10.1931190025 30.6229166667 
Zn 11.1550000000 10.1931190025 32.6000000000 
O 11.1550000000 12.0695073774 33.2229166667 
Zn 11.1550000000 12.0695073774 35.2000000000 
O 11.1550000000 10.1931190025 35.8229166667 
Zn 11.1550000000 10.1931190025 37.8000000000 
O 11.1550000000 12.0695073774 38.4229166667 
Zn 11.1550000000 12.0695073774 40.4000000000 
O 11.1550000000 10.1931190025 41.0229166667 
Zn 11.1550000000 10.1931190025 43.0000000000 
O 11.1550000000 12.0695073774 43.6229166667 
Zn 11.1550000000 12.0695073774 45.6000000000 
O 11.1550000000 10.1931190025 46.2229166667 
Zn 11.1550000000 10.1931190025 48.2000000000 
O 11.1550000000 12.0695073774 48.8229166667 
Zn 11.1550000000 12.0695073774 50.8000000000 
O 11.1550000000 10.1931190025 51.4229166667 
Zn 9.5300000000 13.0077015648 11.8000000000 
O 9.5300000000 14.8840899397 12.4229166667 
Zn 9.5300000000 14.8840899397 14.4000000000 
O 9.5300000000 13.0077015648 15.0229166667 
Zn 9.5300000000 13.0077015648 17.0000000000 
O 9.5300000000 14.8840899397 17.6229166667 
Zn 9.5300000000 14.8840899397 19.6000000000 
O 9.5300000000 13.0077015648 20.2229166667 
Zn 9.5300000000 13.0077015648 22.2000000000 
O 9.5300000000 14.8840899397 22.8229166667 
Zn 9.5300000000 14.8840899397 24.8000000000 
O 9.5300000000 13.0077015648 25.4229166667 
Zn 9.5300000000 13.0077015648 27.4000000000 
O 9.5300000000 14.8840899397 28.0229166667 
Zn 9.5300000000 14.8840899397 30.0000000000 
O 9.5300000000 13.0077015648 30.6229166667 
Zn 9.5300000000 13.0077015648 32.6000000000 
O 9.5300000000 14.8840899397 33.2229166667 
Zn 9.5300000000 14.8840899397 35.2000000000 
O 9.5300000000 13.0077015648 35.8229166667 
Zn 9.5300000000 13.0077015648 37.8000000000 
O 9.5300000000 14.8840899397 38.4229166667 
Zn 9.5300000000 14.8840899397 40.4000000000 
O 9.5300000000 13.0077015648 41.0229166667 
Zn 9.5300000000 13.0077015648 43.0000000000 
O 9.5300000000 14.8840899397 43.6229166667 
Zn 9.5300000000 14.8840899397 45.6000000000 
O 9.5300000000 13.0077015648 46.2229166667 
Zn 9.5300000000 13.0077015648 48.2000000000 
O 9.5300000000 14.8840899397 48.8229166667 
Zn 9.5300000000 14.8840899397 50.8000000000 
O 9.5300000000 13.0077015648 51.4229166667 
Zn 16.0300000000 7.3785364402 11.8000000000 
O 16.0300000000 9.2549248151 12.4229166667 
Zn 16.0300000000 9.2549248151 14.4000000000 
O 16.0300000000 7.3785364402 15.0229166667 
Zn 16.0300000000 7.3785364402 17.0000000000 
O 16.0300000000 9.2549248151 17.6229166667 
Zn 16.0300000000 9.2549248151 19.6000000000 
O 16.0300000000 7.3785364402 20.2229166667 
Zn 16.0300000000 7.3785364402 22.2000000000 
O 16.0300000000 9.2549248151 22.8229166667 
Zn 16.0300000000 9.2549248151 24.8000000000 
O 16.0300000000 7.3785364402 25.4229166667 
Zn 16.0300000000 7.3785364402 27.4000000000 
O 16.0300000000 9.2549248151 28.0229166667 
Zn 16.0300000000 9.2549248151 30.0000000000 
O 16.0300000000 7.3785364402 30.6229166667 
Zn 16.0300000000 7.3785364402 32.6000000000 
O 16.0300000000 9.2549248151 33.2229166667 
Zn 16.0300000000 9.2549248151 35.2000000000 
O 16.0300000000 7.3785364402 35.8229166667 
Zn 16.0300000000 7.3785364402 37.8000000000 
O 16.0300000000 9.2549248151 38.4229166667 
Zn 16.0300000000 9.2549248151 40.4000000000 
O 16.0300000000 7.3785364402 41.0229166667 
Zn 16.0300000000 7.3785364402 43.0000000000 
O 16.0300000000 9.2549248151 43.6229166667 
Zn 16.0300000000 9.2549248151 45.6000000000 
O 16.0300000000 7.3785364402 46.2229166667 
Zn 16.0300000000 7.3785364402 48.2000000000 
O 16.0300000000 9.2549248151 48.8229166667 
Zn 16.0300000000 9.2549248151 50.8000000000 
O 16.0300000000 7.3785364402 51.4229166667 
Zn 14.4050000000 10.1931190025 11.8000000000 
O 14.4050000000 12.0695073774 12.4229166667 
Zn 14.4050000000 12.0695073774 14.4000000000 
O 14.4050000000 10.1931190025 15.0229166667 
Zn 14.4050000000 10.1931190025 17.0000000000 
O 14.4050000000 12.0695073774 17.6229166667 
Zn 14.4050000000 12.0695073774 19.6000000000 
O 14.4050000000 10.1931190025 20.2229166667 
Zn 14.4050000000 10.1931190025 22.2000000000 
O 14.4050000000 12.0695073774 22.8229166667 
Zn 14.4050000000 12.0695073774 24.8000000000 
O 14.4050000000 10.1931190025 25.4229166667 
Zn 14.4050000000 10.1931190025 27.4000000000 
O 14.4050000000 12.0695073774 28.0229166667 
Zn 14.4050000000 12.0695073774 30.0000000000 
O 14.4050000000 10.1931190025 30.6229166667 
Zn 14.4050000000 10.1931190025 32.6000000000 
O 14.4050000000 12.0695073774 33.2229166667 
Zn 14.4050000000 12.0695073774 35.2000000000 
O 14.4050000000 10.1931190025 35.8229166667 
Zn 14.4050000000 10.1931190025 37.8000000000 
O 14.4050000000 12.0695073774 38.4229166667 
Zn 14.4050000000 12.0695073774 40.4000000000 
O 14.4050000000 10.1931190025 41.0229166667 
Zn 14.4050000000 10.1931190025 43.0000000000 
O 14.4050000000 12.0695073774 43.6229166667 
Zn 14.4050000000 12.0695073774 45.6000000000 
O 14.4050000000 10.1931190025 46.2229166667 
Zn 14.4050000000 10.1931190025 48.2000000000 
O 14.4050000000 12.0695073774 48.8229166667 
Zn 14.4050000000 12.0695073774 50.8000000000 
O 14.4050000000 10.1931190025 51.4229166667 
Zn 12.7800000000 13.0077015648 11.8000000000 
O 12.7800000000 14.8840899397 12.4229166667 
Zn 12.7800000000 14.8840899397 14.4000000000 
O 12.7800000000 13.0077015648 15.0229166667 
Zn 12.7800000000 13.0077015648 17.0000000000 
O 12.7800000000 14.8840899397 17.6229166667 
Zn 12.7800000000 14.8840899397 19.6000000000 
O 12.7800000000 13.0077015648 20.2229166667 
Zn 12.7800000000 13.0077015648 22.2000000000 
O 12.7800000000 14.8840899397 22.8229166667 
Zn 12.7800000000 14.8840899397 24.8000000000 
O 12.7800000000 13.0077015648 25.4229166667 
Zn 12.7800000000 13.0077015648 27.4000000000 
O 12.7800000000 14.8840899397 28.0229166667 
Zn 12.7800000000 14.8840899397 30.0000000000 
O 12.7800000000 13.0077015648 30.6229166667 
Zn 12.7800000000 13.0077015648 32.6000000000 
O 12.7800000000 14.8840899397 33.2229166667 
Zn 12.7800000000 14.8840899397 35.2000000000 
O 12.7800000000 13.0077015648 35.8229166667 
Zn 12.7800000000 13.0077015648 37.8000000000 
O 12.7800000000 14.8840899397 38.4229166667 
Zn 12.7800000000 14.8840899397 40.4000000000 
O 12.7800000000 13.0077015648 41.0229166667 
Zn 12.7800000000 13.0077015648 43.0000000000 
O 12.7800000000 14.8840899397 43.6229166667 
Zn 12.7800000000 14.8840899397 45.6000000000 
O 12.7800000000 13.0077015648 46.2229166667 
Zn 12.7800000000 13.0077015648 48.2000000000 
O 12.7800000000 14.8840899397 48.8229166667 
Zn 12.7800000000 14.8840899397 50.8000000000 
O 12.7800000000 13.0077015648 51.4229166667 
Zn 19.2800000000 7.3785364402 11.8000000000 
O 19.2800000000 9.2549248151 12.4229166667 
Zn 19.2800000000 9.2549248151 14.4000000000 
O 19.2800000000 7.3785364402 15.0229166667 
Zn 19.2800000000 7.3785364402 17.0000000000 
O 19.2800000000 9.2549248151 17.6229166667 
Zn 19.2800000000 9.2549248151 19.6000000000 
O 19.2800000000 7.3785364402 20.2229166667 
Zn 19.2800000000 7.3785364402 22.2000000000 
O 19.2800000000 9.2549248151 22.8229166667 
Zn 19.2800000000 9.2549248151 24.8000000000 
O 19.2800000000 7.3785364402 25.4229166667 
Zn 19.2800000000 7.3785364402 27.4000000000 
O 19.2800000000 9.2549248151 28.0229166667 
Zn 19.2800000000 9.2549248151 30.0000000000 
O 19.2800000000 7.3785364402 30.6229166667 
Zn 19.2800000000 7.3785364402 32.6000000000 
O 19.2800000000 9.2549248151 33.2229166667 
Zn 19.2800000000 9.2549248151 35.2000000000 
O 19.2800000000 7.3785364402 35.8229166667 
Zn 19.2800000000 7.3785364402 37.8000000000 
O 19.2800000000 9.2549248151 38.4229166667 
Zn 19.2800000000 9.2549248151 40.4000000000 
O 19.2800000000 7.3785364402 41.0229166667 
Zn 19.2800000000 7.3785364402 43.0000000000 
O 19.2800000000 9.2549248151 43.6229166667 
Zn 19.2800000000 9.2549248151 45.6000000000 
O 19.2800000000 7.3785364402 46.2229166667 
Zn 19.2800000000 7.3785364402 48.2000000000 
O 19.2800000000 9.2549248151 48.8229166667 
Zn 19.2800000000 9.2549248151 50.8000000000 
O 19.2800000000 7.3785364402 51.4229166667 
Zn 17.6550000000 10.1931190025 11.8000000000 
O 17.6550000000 12.0695073774 12.4229166667 
Zn 17.6550000000 12.0695073774 14.4000000000 
O 17.6550000000 10.1931190025 15.0229166667 
Zn 17.6550000000 10.1931190025 17.0000000000 
O 17.6550000000 12.0695073774 17.6229166667 
Zn 17.6550000000 12.0695073774 19.6000000000 
O 17.6550000000 10.1931190025 20.2229166667 
Zn 17.6550000000 10.1931190025 22.2000000000 
O 17.6550000000 12.0695073774 22.8229166667 
Zn 17.6550000000 12.0695073774 24.8000000000 
O 17.6550000000 10.1931190025 25.4229166667 
Zn 17.6550000000 10.1931190025 27.4000000000 
O 17.6550000000 12.0695073774 28.0229166667 
Zn 17.6550000000 12.0695073774 30.0000000000 
O 17.6550000000 10.1931190025 30.6229166667 
Zn 17.6550000000 10.1931190025 32.6000000000 
O 17.6550000000 12.0695073774 33.2229166667 
Zn 17.6550000000 12.0695073774 35.2000000000 
O 17.6550000000 10.1931190025 35.8229166667 
Zn 17.6550000000 10.1931190025 37.8000000000 
O 17.6550000000 12.0695073774 38.4229166667 
Zn 17.6550000000 12.0695073774 40.4000000000 
O 17.6550000000 10.1931190025 41.0229166667 
Zn 17.6550000000 10.1931190025 43.0000000000 
O 17.6550000000 12.0695073774 43.6229166667 
Zn 17.6550000000 12.0695073774 45.6000000000 
O 17.6550000000 10.1931190025 46.2229166667 
Zn 17.6550000000 10.1931190025 48.2000000000 
O 17.6550000000 12.0695073774 48.8229166667 
Zn 17.6550000000 12.0695073774 50.8000000000 
O 17.6550000000 10.1931190025 51.4229166667 
Zn 16.0300000000 13.0077015648 11.8000000000 
O 16.0300000000 14.8840899397 12.4229166667 
Zn 16.0300000000 14.8840899397 14.4000000000 
O 16.0300000000 13.0077015648 15.0229166667 
Zn 16.0300000000 13.0077015648 17.0000000000 
O 16.0300000000 14.8840899397 17.6229166667 
Zn 16.0300000000 14.8840899397 19.6000000000 
O 16.0300000000 13.0077015648 20.2229166667 
Zn 16.0300000000 13.0077015648 22.2000000000 
O 16.0300000000 14.8840899397 22.8229166667 
Zn 16.0300000000 14.8840899397 24.8000000000 
O 16.0300000000 13.0077015648 25.4229166667 
Zn 16.0300000000 13.0077015648 27.4000000000 
O 16.0300000000 14.8840899397 28.0229166667 
Zn 16.0300000000 14.8840899397 30.0000000000 
O 16.0300000000 13.0077015648 30.6229166667 
Zn 16.0300000000 13.0077015648 32.6000000000 
O 16.0300000000 14.8840899397 33.2229166667 
Zn 16.0300000000 14.8840899397 35.2000000000 
O 16.0300000000 13.0077015648 35.8229166667 
Zn 16.0300000000 13.0077015648 37.8000000000 
O 16.0300000000 14.8840899397 38.4229166667 
Zn 16.0300000000 14.8840899397 40.4000000000 
O 16.0300000000 13.0077015648 41.0229166667 
Zn 16.0300000000 13.0077015648 43.0000000000 
O 16.0300000000 14.8840899397 43.6229166667 
Zn 16.0300000000 14.8840899397 45.6000000000 
O 16.0300000000 13.0077015648 46.2229166667 
Zn 16.0300000000 13.0077015648 48.2000000000 
O 16.0300000000 14.8840899397 48.8229166667 
Zn 16.0300000000 14.8840899397 50.8000000000 
O 16.0300000000 13.0077015648 51.4229166667 
C 12.7800000000 7.3785364402 13.5000000000 
N 13.9732696300 6.5381410102 13.6592989700 
C 13.8173988800 5.0782396902 13.6594021900 
C 15.2850247600 7.1407156402 13.8145577000 
C 16.4557166100 6.4098771302 13.5253527500 
C 17.7161216800 6.9965445302 13.6773978100 
C 17.8441056800 8.3294507702 14.1226617600 
C 16.6834533300 9.0543090502 14.4095439700 
C 15.4212845000 8.4725059802 14.2588211300 
N 19.0558279900 8.9449841702 14.2862035000 
C 20.2993959600 8.4255826802 14.0647208100 
C 21.4255118300 9.2096787002 14.2884628300 
C 22.7092597600 8.6983732502 14.0678204400 
C 22.9314798300 7.3669179302 13.6087903200 
N 24.1607809600 6.9025725102 13.4060321300 
C 25.3534505600 7.7396411502 13.6452441800 
C 24.3990174400 5.5248937102 12.9307693400 
C 21.7876810400 6.5540794802 13.3759689900 
C 20.5031090400 7.0484542002 13.5909648100 
S 19.1215657900 6.1245085202 13.3296174800 
H 12.9634179600 8.1520196802 12.7242347300 
H 12.5309350500 7.8671136602 14.4650901100 
H 11.9007323800 6.7828647402 13.1753220000 
H 14.2110296900 4.6566125602 12.7110144800 
H 12.7517372200 4.7808372002 13.7556344100 
H 14.3648321000 4.6398042002 14.5207048100 
H 16.3981063600 5.3895220202 13.1712931000 
H 16.7561357500 10.0785294902 14.7550842200 
H 14.5546311200 9.0704326402 14.5037304000 
H 21.3127063500 10.2290532002 14.6376784600 
H 23.5269682200 9.3758665402 14.2668931200 
H 25.3942803600 8.0495474302 14.7114531600 
H 26.3003796300 7.2028756402 13.4284249300 
H 25.3303461100 8.6337266702 12.9860114100 
H 25.4786593800 5.2960590402 12.8132858700 
H 23.9909824200 4.7936366302 13.6610444900 
H 23.9270460300 5.3777721402 11.9357168200 
H 21.8699808200 5.5341526002 13.0276452500 
Cl 19.1215657900 6.1245085202 9.5296174800 

